Instance Name : r108
Date : 2022-07-18
Solution
Route 1 : 2 57 15 43 42 87 13 58
Route 2 : 6 96 99 5 84 17 61 85 93 59 94
Route 3 : 26 12 80 68 29 24 55 4 25 54
Route 4 : 27 69 70 30 32 90 63 10 31
Route 5 : 1 20 66 65 71 35 34 78 3 77 28
Route 6 : 53
Route 7 : 76 79 81 9 51 33 50
Route 8 : 73 22 41 23 67 39 56 75 74 72 21 40
Route 9 : 95 92 98 44 14 38 86 16 91 100 37 97
Route 10 : 18 82 48 46 8 45 83 60 89
Route 11 : 88 62 11 64 49 36 47 19 7 52
